tsp_instances/TSP50/instance20.tsp
NODE_COORD_SECTION
0 131 19
1 190 95
2 55 177
3 7 14
4 81 150
5 177 55
6 105 85
7 197 7
8 40 138
9 119 87
10 0 116
11 31 35
12 195 190
13 93 37
14 160 122
15 177 147
16 175 28
17 163 182
18 13 164
19 2 7
20 154 198
21 85 45
22 112 127
23 79 32
24 168 52
25 7 36
26 154 139
27 156 71
28 61 34
29 118 159
30 170 76
31 138 41
32 178 156
33 152 108
34 130 54
35 80 166
36 87 6
37 55 8
38 76 85
39 97 63
40 50 116
41 12 60
42 67 57
43 118 15
44 133 41
45 127 77
46 91 14
47 31 69
48 42 70
49 179 98
