tsp_instances/TSP50/instance20.opt.tour
TOUR_SECTION
1
8
17
6
25
28
31
2
50
34
15
27
16
33
13
18
21
30
23
5
36
3
19
11
9
41
39
43
49
48
42
26
20
4
12
29
38
37
47
24
14
22
40
7
10
46
35
32
45
44
-1